c clasp version 2.1.1
c Reading from pb_200_02.cnf
c Solving...
s UNKNOWN

c TIME LIMIT    : 1
c Models        : 0+    
c Time          : 100000.128s (Solving: 99999.53s 1st Model: 0.00s Unsat: 0.00s)
c CPU Time      : 99839.900s
c Choices       : 157032688
c Conflicts     : 117664532
c Restarts      : 32     (Average: 3677016.62 Last: 110448431)

c Variables     : 204423 (Eliminated:   71 Frozen:    0)
c Constraints   : 193687 (Binary: 59.3% Ternary: 37.9% Other:  2.8%)
c Lemmas        : 117664532 (Binary:  0.0% Ternary:  0.0% Other:100.0%)
c   Conflict    : 117664532 (Average Length: 947.2) 
c   Loop        : 0      (Average Length: 0.0) 
c   Other       : 0      (Average Length: 0.0)
c   Deleted     : 117543707
